10J3M/DAT/10J3MNTR-12.dat
10 3
23.4289 26.4416
14.3747 2.4642
26.8152 19.7088
21.8977 5.8723
24.6699 6.7481
19.1665 12.8452
25.3518 10.6154
23.3953 4.4526
18.7875 41.0366
30.2016 0.1287
32.5784