10J3M/SOL/10J3MNTR-12.sol
solution status: optimal solution found
objective value:                      72.207479740404
x#1#3                                               1 	(obj:0)
x#2#1                               0.257273473577855 	(obj:0)
x#2#2                               0.742726526422145 	(obj:0)
x#3#2                                               1 	(obj:0)
x#4#2                                0.70948560859345 	(obj:0)
x#4#3                                0.29051439140655 	(obj:0)
x#5#1                                0.37553949256035 	(obj:0)
x#5#3                               0.371518967965425 	(obj:0)
x#6#2                               0.899322216771975 	(obj:0)
x#6#3                               0.100677783228025 	(obj:0)
x#8#1                                               1 	(obj:0)
x#9#1                                               1 	(obj:0)
x#10#3                                              1 	(obj:0)
z                                     72.207479740404 	(obj:1)
